
  32    1
  10

   0   0   3 2 4 11 
   6   1   5 10 8 6 5 3 
   7   3   3 13 12 9 
   6   2   3 12 10 9 
   8   1   2 9 7 
  10   3   2 12 7 
   1   1   5 18 16 15 14 13 
   7   3   3 18 13 12 
   1   3   5 21 18 16 15 14 
  10   2   4 21 18 16 15 
   3   2   4 21 18 16 15 
   7   2   3 21 16 15 
   5   1   4 21 20 19 17 
  10   3   3 22 20 19 
   7   1   2 20 17 
  10   2   2 22 19 
   5   1   2 25 22 
   3   2   2 25 22 
   9   2   5 30 29 28 26 25 
   9   2   5 30 29 28 26 25 
   4   1   4 31 30 29 24 
   5   2   1 23 
   5   2   3 30 29 24 
   3   4   2 28 26 
   3   1   2 31 27 
   5   1   1 27 
   5   1   1 32
   5   4   1 32
   2   2   1 32
   5   3   1 32
   2   2   1 32
   0   0   0 
